p tw 46 50
1 2
2 13
3 4
4 5
5 6
6 7
7 8
7 27
8 9
9 10
9 14
10 11
11 12
12 21
13 24
14 15
15 16
16 17
17 18
18 19
19 20
20 21
21 22
22 23
23 25
24 35
25 26
26 40
27 28
28 29
29 30
29 36
30 31
31 32
32 33
33 34
33 36
34 40
35 42
35 43
36 37
37 38
38 39
39 3
40 41
42 40
43 44
44 45
45 46
46 3
